proyfinal/src/viki/013/andrea/andrea-localstore/experimentInOfficeAgust.take6/worker_6/e93a1622-7dae-468d-8d6e-5268d9d1eaa2.als.cnf.out
Reading from standard input... Use '--help' for help.
============================[ Problem Statistics ]=============================
|                                                                             |
|  Number of variables:         87638                                         |
|  Number of clauses:          161767                                         |
|  Parse time:                   0.04 s                                       |
|                                                                             |
============================[ Search Statistics ]==============================
| Conflicts |          ORIGINAL         |          LEARNT          | Progress |
|           |    Vars  Clauses Literals |    Limit  Clauses Lit/Cl |          |
===============================================================================
|       100 |   62670   106204   265460 |    38941      100      9 | 28.490 % |
|       250 |   62670   106204   265460 |    42835      250     26 | 28.490 % |
|       475 |   62670   106204   265460 |    47119      475     52 | 28.490 % |
|       812 |   62669   106160   265370 |    51831      810     56 | 28.491 % |
|      1318 |   62645   106060   265141 |    57014     1039     72 | 28.518 % |
|      2077 |   62627   105986   264970 |    62715     1797     80 | 28.539 % |
|      3216 |   62610   105918   264809 |    68987     2935     85 | 28.558 % |
|      4924 |   62584   105775   264497 |    75885     4331     93 | 28.588 % |
|      7486 |   62558   105632   264185 |    83474     6629     98 | 28.618 % |
===============================================================================
restarts              : 37
conflicts             : 8817           (6124 /sec)
decisions             : 31471          (0.00 % random) (21857 /sec)
propagations          : 14448057       (10034530 /sec)
conflict literals     : 831287         (51.82 % deleted)
Memory used           : 29.35 MB
CPU time              : 1.43983 s

UNSATISFIABLE
